\Generated by Cardinal Operations

Minimize
   2 x_0_1 + 3.61 x_0_2 + 3 x_0_3 + 4.24 x_0_4 + 5.1 x_0_5 + 5.39 x_0_6 
   + 7 x_0_7 + 7.28 x_0_8 + 10.2 x_0_9 + 10.05 x_0_10 + 26.25 x_0_11 
   + 24.04 x_0_12 + 28.6 x_0_13 + 27.73 x_0_14 + 30.23 x_0_15 
   + 27.89 x_0_16 + 30.81 x_0_17 + 32.31 x_0_18 + 23.43 x_0_19 + 2 x_1_0 
   + 5 x_1_2 + 3.61 x_1_3 + 5.83 x_1_4 + 5.1 x_1_5 + 6.4 x_1_6 + 7.28 x_1_7 
   + 7 x_1_8 + 10.77 x_1_9 + 10.05 x_1_10 + 25 x_1_11 + 23.54 x_1_12 
   + 27.46 x_1_13 + 26.93 x_1_14 + 29.15 x_1_15 + 27.46 x_1_16 
   + 30.41 x_1_17 + 31.62 x_1_18 + 25 x_1_19 + 3.61 x_2_0 + 5 x_2_1 
   + 2 x_2_3 + x_2_4 + 3.61 x_2_5 + 2 x_2_6 + 4.47 x_2_7 + 5.66 x_2_8 
   + 7 x_2_9 + 7.62 x_2_10 + 25.5 x_2_11 + 21.93 x_2_12 + 27.59 x_2_13 
   + 26.08 x_2_14 + 29.07 x_2_15 + 25.63 x_2_16 + 28.46 x_2_17 
   + 30.41 x_2_18 + 20 x_2_19 + 3 x_3_0 + 3.61 x_3_1 + 2 x_3_2 + 3 x_3_4 
   + 2.24 x_3_5 + 2.83 x_3_6 + 4 x_3_7 + 4.47 x_3_8 + 7.28 x_3_9 
   + 7.07 x_3_10 + 24.04 x_3_11 + 21.19 x_3_12 + 26.25 x_3_13 
   + 25.06 x_3_14 + 27.8 x_3_15 + 25 x_3_16 + 27.89 x_3_17 + 29.55 x_3_18 
   + 21.63 x_3_19 + 4.24 x_4_0 + 5.83 x_4_1 + x_4_2 + 3 x_4_3 + 4.47 x_4_5 
   + 2.24 x_4_6 + 5 x_4_7 + 6.4 x_4_8 + 7.07 x_4_9 + 8.06 x_4_10 
   + 26.25 x_4_11 + 22.36 x_4_12 + 28.28 x_4_13 + 26.63 x_4_14 
   + 29.73 x_4_15 + 26 x_4_16 + 28.79 x_4_17 + 30.89 x_4_18 + 19.21 x_4_19 
   + 5.1 x_5_0 + 5.1 x_5_1 + 3.61 x_5_2 + 2.24 x_5_3 + 4.47 x_5_4 + 3 x_5_6 
   + 2.24 x_5_7 + 2.24 x_5_8 + 5.83 x_5_9 + 5 x_5_10 + 21.93 x_5_11 
   + 18.97 x_5_12 + 24.08 x_5_13 + 22.83 x_5_14 + 25.61 x_5_15 
   + 22.8 x_5_16 + 25.71 x_5_17 + 27.31 x_5_18 + 21.47 x_5_19 + 5.39 x_6_0 
   + 6.4 x_6_1 + 2 x_6_2 + 2.83 x_6_3 + 2.24 x_6_4 + 3 x_6_5 + 2.83 x_6_7 
   + 4.47 x_6_8 + 5 x_6_9 + 5.83 x_6_10 + 24.21 x_6_11 + 20.12 x_6_12 
   + 26.17 x_6_13 + 24.41 x_6_14 + 27.59 x_6_15 + 23.77 x_6_16 
   + 26.57 x_6_17 + 28.65 x_6_18 + 18.87 x_6_19 + 7 x_7_0 + 7.28 x_7_1 
   + 4.47 x_7_2 + 4 x_7_3 + 5 x_7_4 + 2.24 x_7_5 + 2.83 x_7_6 + 2 x_7_8 
   + 3.61 x_7_9 + 3.16 x_7_10 + 21.4 x_7_11 + 17.46 x_7_12 + 23.35 x_7_13 
   + 21.63 x_7_14 + 24.76 x_7_15 + 21.19 x_7_16 + 24.04 x_7_17 
   + 25.94 x_7_18 + 19.7 x_7_19 + 7.28 x_8_0 + 7 x_8_1 + 5.66 x_8_2 
   + 4.47 x_8_3 + 6.4 x_8_4 + 2.24 x_8_5 + 4.47 x_8_6 + 2 x_8_7 + 5 x_8_9 
   + 3.16 x_8_10 + 19.85 x_8_11 + 16.76 x_8_12 + 21.93 x_8_13 
   + 20.59 x_8_14 + 23.43 x_8_15 + 20.62 x_8_16 + 23.54 x_8_17 
   + 25.08 x_8_18 + 21.54 x_8_19 + 10.2 x_9_0 + 10.77 x_9_1 + 7 x_9_2 
   + 7.28 x_9_3 + 7.07 x_9_4 + 5.83 x_9_5 + 5 x_9_6 + 3.61 x_9_7 + 5 x_9_8 
   + 3 x_9_10 + 21.47 x_9_11 + 15.81 x_9_12 + 23.02 x_9_13 + 20.52 x_9_14 
   + 24.21 x_9_15 + 19.24 x_9_16 + 21.93 x_9_17 + 24.41 x_9_18 
   + 16.76 x_9_19 + 10.05 x_10_0 + 10.05 x_10_1 + 7.62 x_10_2 + 7.07 x_10_3 
   + 8.06 x_10_4 + 5 x_10_5 + 5.83 x_10_6 + 3.16 x_10_7 + 3.16 x_10_8 
   + 3 x_10_9 + 18.87 x_10_11 + 14.32 x_10_12 + 20.62 x_10_13 
   + 18.6 x_10_14 + 21.93 x_10_15 + 18.03 x_10_16 + 20.88 x_10_17 
   + 22.83 x_10_18 + 19.65 x_10_19 + 26.25 x_11_0 + 25 x_11_1 + 25.5 x_11_2 
   + 24.04 x_11_3 + 26.25 x_11_4 + 21.93 x_11_5 + 24.21 x_11_6 
   + 21.4 x_11_7 + 19.85 x_11_8 + 21.47 x_11_9 + 18.87 x_11_10 
   + 10.44 x_11_12 + 3 x_11_13 + 7.07 x_11_14 + 5 x_11_15 + 12.21 x_11_16 
   + 14.14 x_11_17 + 11.18 x_11_18 + 35.36 x_11_19 + 24.04 x_12_0 
   + 23.54 x_12_1 + 21.93 x_12_2 + 21.19 x_12_3 + 22.36 x_12_4 
   + 18.97 x_12_5 + 20.12 x_12_6 + 17.46 x_12_7 + 16.76 x_12_8 
   + 15.81 x_12_9 + 14.32 x_12_10 + 10.44 x_12_11 + 10 x_12_13 
   + 5.39 x_12_14 + 10.2 x_12_15 + 4 x_12_16 + 7 x_12_17 + 8.6 x_12_18 
   + 26.25 x_12_19 + 28.6 x_13_0 + 27.46 x_13_1 + 27.59 x_13_2 
   + 26.25 x_13_3 + 28.28 x_13_4 + 24.08 x_13_5 + 26.17 x_13_6 
   + 23.35 x_13_7 + 21.93 x_13_8 + 23.02 x_13_9 + 20.62 x_13_10 + 3 x_13_11 
   + 10 x_13_12 + 5.39 x_13_14 + 2 x_13_15 + 10.77 x_13_16 + 12.21 x_13_17 
   + 8.6 x_13_18 + 35.9 x_13_19 + 27.73 x_14_0 + 26.93 x_14_1 
   + 26.08 x_14_2 + 25.06 x_14_3 + 26.63 x_14_4 + 22.83 x_14_5 
   + 24.41 x_14_6 + 21.63 x_14_7 + 20.59 x_14_8 + 20.52 x_14_9 
   + 18.6 x_14_10 + 7.07 x_14_11 + 5.39 x_14_12 + 5.39 x_14_13 + 5 x_14_15 
   + 5.39 x_14_16 + 7.07 x_14_17 + 5 x_14_18 + 31.62 x_14_19 + 30.23 x_15_0 
   + 29.15 x_15_1 + 29.07 x_15_2 + 27.8 x_15_3 + 29.73 x_15_4 
   + 25.61 x_15_5 + 27.59 x_15_6 + 24.76 x_15_7 + 23.43 x_15_8 
   + 24.21 x_15_9 + 21.93 x_15_10 + 5 x_15_11 + 10.2 x_15_12 + 2 x_15_13 
   + 5 x_15_14 + 10.2 x_15_16 + 11.18 x_15_17 + 7.07 x_15_18 + 36.4 x_15_19 
   + 27.89 x_16_0 + 27.46 x_16_1 + 25.63 x_16_2 + 25 x_16_3 + 26 x_16_4 
   + 22.8 x_16_5 + 23.77 x_16_6 + 21.19 x_16_7 + 20.62 x_16_8 
   + 19.24 x_16_9 + 18.03 x_16_10 + 12.21 x_16_11 + 4 x_16_12 
   + 10.77 x_16_13 + 5.39 x_16_14 + 10.2 x_16_15 + 3 x_16_17 + 5.83 x_16_18 
   + 27.73 x_16_19 + 30.81 x_17_0 + 30.41 x_17_1 + 28.46 x_17_2 
   + 27.89 x_17_3 + 28.79 x_17_4 + 25.71 x_17_5 + 26.57 x_17_6 
   + 24.04 x_17_7 + 23.54 x_17_8 + 21.93 x_17_9 + 20.88 x_17_10 
   + 14.14 x_17_11 + 7 x_17_12 + 12.21 x_17_13 + 7.07 x_17_14 
   + 11.18 x_17_15 + 3 x_17_16 + 5 x_17_18 + 29.15 x_17_19 + 32.31 x_18_0 
   + 31.62 x_18_1 + 30.41 x_18_2 + 29.55 x_18_3 + 30.89 x_18_4 
   + 27.31 x_18_5 + 28.65 x_18_6 + 25.94 x_18_7 + 25.08 x_18_8 
   + 24.41 x_18_9 + 22.83 x_18_10 + 11.18 x_18_11 + 8.6 x_18_12 
   + 8.6 x_18_13 + 5 x_18_14 + 7.07 x_18_15 + 5.83 x_18_16 + 5 x_18_17 
   + 33.54 x_18_19 + 23.43 x_19_0 + 25 x_19_1 + 20 x_19_2 + 21.63 x_19_3 
   + 19.21 x_19_4 + 21.47 x_19_5 + 18.87 x_19_6 + 19.7 x_19_7 
   + 21.54 x_19_8 + 16.76 x_19_9 + 19.65 x_19_10 + 35.36 x_19_11 
   + 26.25 x_19_12 + 35.9 x_19_13 + 31.62 x_19_14 + 36.4 x_19_15 
   + 27.73 x_19_16 + 29.15 x_19_17 + 33.54 x_19_18 
Subject To
 in_0: x_1_0 + x_2_0 + x_3_0 + x_4_0 + x_5_0 + x_6_0 + x_7_0 + x_8_0 
   + x_9_0 + x_10_0 + x_11_0 + x_12_0 + x_13_0 + x_14_0 + x_15_0 + x_16_0 
   + x_17_0 + x_18_0 + x_19_0 = 1
 in_1: x_0_1 + x_2_1 + x_3_1 + x_4_1 + x_5_1 + x_6_1 + x_7_1 + x_8_1 
   + x_9_1 + x_10_1 + x_11_1 + x_12_1 + x_13_1 + x_14_1 + x_15_1 + x_16_1 
   + x_17_1 + x_18_1 + x_19_1 = 1
 in_2: x_0_2 + x_1_2 + x_3_2 + x_4_2 + x_5_2 + x_6_2 + x_7_2 + x_8_2 
   + x_9_2 + x_10_2 + x_11_2 + x_12_2 + x_13_2 + x_14_2 + x_15_2 + x_16_2 
   + x_17_2 + x_18_2 + x_19_2 = 1
 in_3: x_0_3 + x_1_3 + x_2_3 + x_4_3 + x_5_3 + x_6_3 + x_7_3 + x_8_3 
   + x_9_3 + x_10_3 + x_11_3 + x_12_3 + x_13_3 + x_14_3 + x_15_3 + x_16_3 
   + x_17_3 + x_18_3 + x_19_3 = 1
 in_4: x_0_4 + x_1_4 + x_2_4 + x_3_4 + x_5_4 + x_6_4 + x_7_4 + x_8_4 
   + x_9_4 + x_10_4 + x_11_4 + x_12_4 + x_13_4 + x_14_4 + x_15_4 + x_16_4 
   + x_17_4 + x_18_4 + x_19_4 = 1
 in_5: x_0_5 + x_1_5 + x_2_5 + x_3_5 + x_4_5 + x_6_5 + x_7_5 + x_8_5 
   + x_9_5 + x_10_5 + x_11_5 + x_12_5 + x_13_5 + x_14_5 + x_15_5 + x_16_5 
   + x_17_5 + x_18_5 + x_19_5 = 1
 in_6: x_0_6 + x_1_6 + x_2_6 + x_3_6 + x_4_6 + x_5_6 + x_7_6 + x_8_6 
   + x_9_6 + x_10_6 + x_11_6 + x_12_6 + x_13_6 + x_14_6 + x_15_6 + x_16_6 
   + x_17_6 + x_18_6 + x_19_6 = 1
 in_7: x_0_7 + x_1_7 + x_2_7 + x_3_7 + x_4_7 + x_5_7 + x_6_7 + x_8_7 
   + x_9_7 + x_10_7 + x_11_7 + x_12_7 + x_13_7 + x_14_7 + x_15_7 + x_16_7 
   + x_17_7 + x_18_7 + x_19_7 = 1
 in_8: x_0_8 + x_1_8 + x_2_8 + x_3_8 + x_4_8 + x_5_8 + x_6_8 + x_7_8 
   + x_9_8 + x_10_8 + x_11_8 + x_12_8 + x_13_8 + x_14_8 + x_15_8 + x_16_8 
   + x_17_8 + x_18_8 + x_19_8 = 1
 in_9: x_0_9 + x_1_9 + x_2_9 + x_3_9 + x_4_9 + x_5_9 + x_6_9 + x_7_9 
   + x_8_9 + x_10_9 + x_11_9 + x_12_9 + x_13_9 + x_14_9 + x_15_9 + x_16_9 
   + x_17_9 + x_18_9 + x_19_9 = 1
 in_10: x_0_10 + x_1_10 + x_2_10 + x_3_10 + x_4_10 + x_5_10 + x_6_10 
   + x_7_10 + x_8_10 + x_9_10 + x_11_10 + x_12_10 + x_13_10 + x_14_10 
   + x_15_10 + x_16_10 + x_17_10 + x_18_10 + x_19_10 = 1
 in_11: x_0_11 + x_1_11 + x_2_11 + x_3_11 + x_4_11 + x_5_11 + x_6_11 
   + x_7_11 + x_8_11 + x_9_11 + x_10_11 + x_12_11 + x_13_11 + x_14_11 
   + x_15_11 + x_16_11 + x_17_11 + x_18_11 + x_19_11 = 1
 in_12: x_0_12 + x_1_12 + x_2_12 + x_3_12 + x_4_12 + x_5_12 + x_6_12 
   + x_7_12 + x_8_12 + x_9_12 + x_10_12 + x_11_12 + x_13_12 + x_14_12 
   + x_15_12 + x_16_12 + x_17_12 + x_18_12 + x_19_12 = 1
 in_13: x_0_13 + x_1_13 + x_2_13 + x_3_13 + x_4_13 + x_5_13 + x_6_13 
   + x_7_13 + x_8_13 + x_9_13 + x_10_13 + x_11_13 + x_12_13 + x_14_13 
   + x_15_13 + x_16_13 + x_17_13 + x_18_13 + x_19_13 = 1
 in_14: x_0_14 + x_1_14 + x_2_14 + x_3_14 + x_4_14 + x_5_14 + x_6_14 
   + x_7_14 + x_8_14 + x_9_14 + x_10_14 + x_11_14 + x_12_14 + x_13_14 
   + x_15_14 + x_16_14 + x_17_14 + x_18_14 + x_19_14 = 1
 in_15: x_0_15 + x_1_15 + x_2_15 + x_3_15 + x_4_15 + x_5_15 + x_6_15 
   + x_7_15 + x_8_15 + x_9_15 + x_10_15 + x_11_15 + x_12_15 + x_13_15 
   + x_14_15 + x_16_15 + x_17_15 + x_18_15 + x_19_15 = 1
 in_16: x_0_16 + x_1_16 + x_2_16 + x_3_16 + x_4_16 + x_5_16 + x_6_16 
   + x_7_16 + x_8_16 + x_9_16 + x_10_16 + x_11_16 + x_12_16 + x_13_16 
   + x_14_16 + x_15_16 + x_17_16 + x_18_16 + x_19_16 = 1
 in_17: x_0_17 + x_1_17 + x_2_17 + x_3_17 + x_4_17 + x_5_17 + x_6_17 
   + x_7_17 + x_8_17 + x_9_17 + x_10_17 + x_11_17 + x_12_17 + x_13_17 
   + x_14_17 + x_15_17 + x_16_17 + x_18_17 + x_19_17 = 1
 in_18: x_0_18 + x_1_18 + x_2_18 + x_3_18 + x_4_18 + x_5_18 + x_6_18 
   + x_7_18 + x_8_18 + x_9_18 + x_10_18 + x_11_18 + x_12_18 + x_13_18 
   + x_14_18 + x_15_18 + x_16_18 + x_17_18 + x_19_18 = 1
 in_19: x_0_19 + x_1_19 + x_2_19 + x_3_19 + x_4_19 + x_5_19 + x_6_19 
   + x_7_19 + x_8_19 + x_9_19 + x_10_19 + x_11_19 + x_12_19 + x_13_19 
   + x_14_19 + x_15_19 + x_16_19 + x_17_19 + x_18_19 = 1
 out_0: x_0_1 + x_0_2 + x_0_3 + x_0_4 + x_0_5 + x_0_6 + x_0_7 + x_0_8 
   + x_0_9 + x_0_10 + x_0_11 + x_0_12 + x_0_13 + x_0_14 + x_0_15 + x_0_16 
   + x_0_17 + x_0_18 + x_0_19 = 1
 out_1: x_1_0 + x_1_2 + x_1_3 + x_1_4 + x_1_5 + x_1_6 + x_1_7 + x_1_8 
   + x_1_9 + x_1_10 + x_1_11 + x_1_12 + x_1_13 + x_1_14 + x_1_15 + x_1_16 
   + x_1_17 + x_1_18 + x_1_19 = 1
 out_2: x_2_0 + x_2_1 + x_2_3 + x_2_4 + x_2_5 + x_2_6 + x_2_7 + x_2_8 
   + x_2_9 + x_2_10 + x_2_11 + x_2_12 + x_2_13 + x_2_14 + x_2_15 + x_2_16 
   + x_2_17 + x_2_18 + x_2_19 = 1
 out_3: x_3_0 + x_3_1 + x_3_2 + x_3_4 + x_3_5 + x_3_6 + x_3_7 + x_3_8 
   + x_3_9 + x_3_10 + x_3_11 + x_3_12 + x_3_13 + x_3_14 + x_3_15 + x_3_16 
   + x_3_17 + x_3_18 + x_3_19 = 1
 out_4: x_4_0 + x_4_1 + x_4_2 + x_4_3 + x_4_5 + x_4_6 + x_4_7 + x_4_8 
   + x_4_9 + x_4_10 + x_4_11 + x_4_12 + x_4_13 + x_4_14 + x_4_15 + x_4_16 
   + x_4_17 + x_4_18 + x_4_19 = 1
 out_5: x_5_0 + x_5_1 + x_5_2 + x_5_3 + x_5_4 + x_5_6 + x_5_7 + x_5_8 
   + x_5_9 + x_5_10 + x_5_11 + x_5_12 + x_5_13 + x_5_14 + x_5_15 + x_5_16 
   + x_5_17 + x_5_18 + x_5_19 = 1
 out_6: x_6_0 + x_6_1 + x_6_2 + x_6_3 + x_6_4 + x_6_5 + x_6_7 + x_6_8 
   + x_6_9 + x_6_10 + x_6_11 + x_6_12 + x_6_13 + x_6_14 + x_6_15 + x_6_16 
   + x_6_17 + x_6_18 + x_6_19 = 1
 out_7: x_7_0 + x_7_1 + x_7_2 + x_7_3 + x_7_4 + x_7_5 + x_7_6 + x_7_8 
   + x_7_9 + x_7_10 + x_7_11 + x_7_12 + x_7_13 + x_7_14 + x_7_15 + x_7_16 
   + x_7_17 + x_7_18 + x_7_19 = 1
 out_8: x_8_0 + x_8_1 + x_8_2 + x_8_3 + x_8_4 + x_8_5 + x_8_6 + x_8_7 
   + x_8_9 + x_8_10 + x_8_11 + x_8_12 + x_8_13 + x_8_14 + x_8_15 + x_8_16 
   + x_8_17 + x_8_18 + x_8_19 = 1
 out_9: x_9_0 + x_9_1 + x_9_2 + x_9_3 + x_9_4 + x_9_5 + x_9_6 + x_9_7 
   + x_9_8 + x_9_10 + x_9_11 + x_9_12 + x_9_13 + x_9_14 + x_9_15 + x_9_16 
   + x_9_17 + x_9_18 + x_9_19 = 1
 out_10: x_10_0 + x_10_1 + x_10_2 + x_10_3 + x_10_4 + x_10_5 + x_10_6 
   + x_10_7 + x_10_8 + x_10_9 + x_10_11 + x_10_12 + x_10_13 + x_10_14 
   + x_10_15 + x_10_16 + x_10_17 + x_10_18 + x_10_19 = 1
 out_11: x_11_0 + x_11_1 + x_11_2 + x_11_3 + x_11_4 + x_11_5 + x_11_6 
   + x_11_7 + x_11_8 + x_11_9 + x_11_10 + x_11_12 + x_11_13 + x_11_14 
   + x_11_15 + x_11_16 + x_11_17 + x_11_18 + x_11_19 = 1
 out_12: x_12_0 + x_12_1 + x_12_2 + x_12_3 + x_12_4 + x_12_5 + x_12_6 
   + x_12_7 + x_12_8 + x_12_9 + x_12_10 + x_12_11 + x_12_13 + x_12_14 
   + x_12_15 + x_12_16 + x_12_17 + x_12_18 + x_12_19 = 1
 out_13: x_13_0 + x_13_1 + x_13_2 + x_13_3 + x_13_4 + x_13_5 + x_13_6 
   + x_13_7 + x_13_8 + x_13_9 + x_13_10 + x_13_11 + x_13_12 + x_13_14 
   + x_13_15 + x_13_16 + x_13_17 + x_13_18 + x_13_19 = 1
 out_14: x_14_0 + x_14_1 + x_14_2 + x_14_3 + x_14_4 + x_14_5 + x_14_6 
   + x_14_7 + x_14_8 + x_14_9 + x_14_10 + x_14_11 + x_14_12 + x_14_13 
   + x_14_15 + x_14_16 + x_14_17 + x_14_18 + x_14_19 = 1
 out_15: x_15_0 + x_15_1 + x_15_2 + x_15_3 + x_15_4 + x_15_5 + x_15_6 
   + x_15_7 + x_15_8 + x_15_9 + x_15_10 + x_15_11 + x_15_12 + x_15_13 
   + x_15_14 + x_15_16 + x_15_17 + x_15_18 + x_15_19 = 1
 out_16: x_16_0 + x_16_1 + x_16_2 + x_16_3 + x_16_4 + x_16_5 + x_16_6 
   + x_16_7 + x_16_8 + x_16_9 + x_16_10 + x_16_11 + x_16_12 + x_16_13 
   + x_16_14 + x_16_15 + x_16_17 + x_16_18 + x_16_19 = 1
 out_17: x_17_0 + x_17_1 + x_17_2 + x_17_3 + x_17_4 + x_17_5 + x_17_6 
   + x_17_7 + x_17_8 + x_17_9 + x_17_10 + x_17_11 + x_17_12 + x_17_13 
   + x_17_14 + x_17_15 + x_17_16 + x_17_18 + x_17_19 = 1
 out_18: x_18_0 + x_18_1 + x_18_2 + x_18_3 + x_18_4 + x_18_5 + x_18_6 
   + x_18_7 + x_18_8 + x_18_9 + x_18_10 + x_18_11 + x_18_12 + x_18_13 
   + x_18_14 + x_18_15 + x_18_16 + x_18_17 + x_18_19 = 1
 out_19: x_19_0 + x_19_1 + x_19_2 + x_19_3 + x_19_4 + x_19_5 + x_19_6 
   + x_19_7 + x_19_8 + x_19_9 + x_19_10 + x_19_11 + x_19_12 + x_19_13 
   + x_19_14 + x_19_15 + x_19_16 + x_19_17 + x_19_18 = 1
Binaries
 x_0_1  x_0_2  x_0_3  x_0_4  x_0_5  x_0_6  x_0_7  x_0_8  x_0_9  x_0_10  
 x_0_11  x_0_12  x_0_13  x_0_14  x_0_15  x_0_16  x_0_17  x_0_18  x_0_19  
 x_1_0  x_1_2  x_1_3  x_1_4  x_1_5  x_1_6  x_1_7  x_1_8  x_1_9  x_1_10  
 x_1_11  x_1_12  x_1_13  x_1_14  x_1_15  x_1_16  x_1_17  x_1_18  x_1_19  
 x_2_0  x_2_1  x_2_3  x_2_4  x_2_5  x_2_6  x_2_7  x_2_8  x_2_9  x_2_10  
 x_2_11  x_2_12  x_2_13  x_2_14  x_2_15  x_2_16  x_2_17  x_2_18  x_2_19  
 x_3_0  x_3_1  x_3_2  x_3_4  x_3_5  x_3_6  x_3_7  x_3_8  x_3_9  x_3_10  
 x_3_11  x_3_12  x_3_13  x_3_14  x_3_15  x_3_16  x_3_17  x_3_18  x_3_19  
 x_4_0  x_4_1  x_4_2  x_4_3  x_4_5  x_4_6  x_4_7  x_4_8  x_4_9  x_4_10  
 x_4_11  x_4_12  x_4_13  x_4_14  x_4_15  x_4_16  x_4_17  x_4_18  x_4_19  
 x_5_0  x_5_1  x_5_2  x_5_3  x_5_4  x_5_6  x_5_7  x_5_8  x_5_9  x_5_10  
 x_5_11  x_5_12  x_5_13  x_5_14  x_5_15  x_5_16  x_5_17  x_5_18  x_5_19  
 x_6_0  x_6_1  x_6_2  x_6_3  x_6_4  x_6_5  x_6_7  x_6_8  x_6_9  x_6_10  
 x_6_11  x_6_12  x_6_13  x_6_14  x_6_15  x_6_16  x_6_17  x_6_18  x_6_19  
 x_7_0  x_7_1  x_7_2  x_7_3  x_7_4  x_7_5  x_7_6  x_7_8  x_7_9  x_7_10  
 x_7_11  x_7_12  x_7_13  x_7_14  x_7_15  x_7_16  x_7_17  x_7_18  x_7_19  
 x_8_0  x_8_1  x_8_2  x_8_3  x_8_4  x_8_5  x_8_6  x_8_7  x_8_9  x_8_10  
 x_8_11  x_8_12  x_8_13  x_8_14  x_8_15  x_8_16  x_8_17  x_8_18  x_8_19  
 x_9_0  x_9_1  x_9_2  x_9_3  x_9_4  x_9_5  x_9_6  x_9_7  x_9_8  x_9_10  
 x_9_11  x_9_12  x_9_13  x_9_14  x_9_15  x_9_16  x_9_17  x_9_18  x_9_19  
 x_10_0  x_10_1  x_10_2  x_10_3  x_10_4  x_10_5  x_10_6  x_10_7  x_10_8  
 x_10_9  x_10_11  x_10_12  x_10_13  x_10_14  x_10_15  x_10_16  x_10_17  
 x_10_18  x_10_19  x_11_0  x_11_1  x_11_2  x_11_3  x_11_4  x_11_5  x_11_6  
 x_11_7  x_11_8  x_11_9  x_11_10  x_11_12  x_11_13  x_11_14  x_11_15  
 x_11_16  x_11_17  x_11_18  x_11_19  x_12_0  x_12_1  x_12_2  x_12_3  
 x_12_4  x_12_5  x_12_6  x_12_7  x_12_8  x_12_9  x_12_10  x_12_11  x_12_13  
 x_12_14  x_12_15  x_12_16  x_12_17  x_12_18  x_12_19  x_13_0  x_13_1  
 x_13_2  x_13_3  x_13_4  x_13_5  x_13_6  x_13_7  x_13_8  x_13_9  x_13_10  
 x_13_11  x_13_12  x_13_14  x_13_15  x_13_16  x_13_17  x_13_18  x_13_19  
 x_14_0  x_14_1  x_14_2  x_14_3  x_14_4  x_14_5  x_14_6  x_14_7  x_14_8  
 x_14_9  x_14_10  x_14_11  x_14_12  x_14_13  x_14_15  x_14_16  x_14_17  
 x_14_18  x_14_19  x_15_0  x_15_1  x_15_2  x_15_3  x_15_4  x_15_5  x_15_6  
 x_15_7  x_15_8  x_15_9  x_15_10  x_15_11  x_15_12  x_15_13  x_15_14  
 x_15_16  x_15_17  x_15_18  x_15_19  x_16_0  x_16_1  x_16_2  x_16_3  
 x_16_4  x_16_5  x_16_6  x_16_7  x_16_8  x_16_9  x_16_10  x_16_11  x_16_12  
 x_16_13  x_16_14  x_16_15  x_16_17  x_16_18  x_16_19  x_17_0  x_17_1  
 x_17_2  x_17_3  x_17_4  x_17_5  x_17_6  x_17_7  x_17_8  x_17_9  x_17_10  
 x_17_11  x_17_12  x_17_13  x_17_14  x_17_15  x_17_16  x_17_18  x_17_19  
 x_18_0  x_18_1  x_18_2  x_18_3  x_18_4  x_18_5  x_18_6  x_18_7  x_18_8  
 x_18_9  x_18_10  x_18_11  x_18_12  x_18_13  x_18_14  x_18_15  x_18_16  
 x_18_17  x_18_19  x_19_0  x_19_1  x_19_2  x_19_3  x_19_4  x_19_5  x_19_6  
 x_19_7  x_19_8  x_19_9  x_19_10  x_19_11  x_19_12  x_19_13  x_19_14  
 x_19_15  x_19_16  x_19_17  x_19_18  
END

